letting n_nurses=25
letting n_days=7
letting n_shift_types=4
letting max_covers=13
letting t_covers=87
letting covers=[3,5,1,0,13,7,5,0,10,5,4,0,0,0,0,0,9,5,4,0,8,4,4,0,0,0,0,0]
letting prefes=[2,1,3,4,3,1,1,4,3,1,2,4,2,1,3,4,3,1,2,4,3,1,1,4,3,1,2,4,1,1,3,2,3,1,1,4,3,1,1,2,2,1,1,4,3,1,1,2,3,1,1,4,3,1,1,2,1,3,1,2,1,2,1,3,3,1,1,2,2,1,3,4,3,1,1,2,1,2,1,3,3,1,1,2,1,3,3,2,1,1,3,4,1,3,1,2,1,1,3,4,1,3,1,2,1,1,3,4,1,3,1,2,4,1,3,2,1,1,1,4,1,1,3,2,1,1,1,4,1,1,3,2,1,1,1,4,1,1,3,2,1,3,3,2,1,2,1,4,1,3,1,2,1,1,1,4,1,3,1,2,1,2,1,4,1,3,1,2,2,3,1,4,1,1,1,4,1,1,1,4,1,2,1,4,1,1,1,4,1,1,1,4,1,1,1,4,1,3,3,2,1,1,1,4,1,1,1,2,1,2,1,3,1,1,1,2,1,1,1,4,1,1,1,2,1,3,3,2,1,1,1,3,1,3,1,2,1,2,3,4,1,3,1,2,1,1,1,3,1,3,1,2,1,3,3,2,1,1,1,4,1,1,1,2,1,1,1,3,1,1,1,2,1,1,1,4,1,1,1,2,1,3,3,2,1,1,1,3,1,1,1,2,1,1,1,4,1,1,1,2,1,1,1,3,1,1,1,2,1,1,3,2,3,1,1,4,1,3,1,2,1,2,3,4,1,3,1,2,3,1,1,4,1,3,1,2,1,3,3,2,3,1,1,4,3,1,1,2,1,1,1,4,3,1,1,2,3,1,1,4,3,1,1,2,1,3,3,2,3,2,1,4,1,3,1,2,1,2,1,4,1,3,1,2,3,2,1,4,1,3,1,2,1,3,3,4,1,1,1,4,1,1,1,4,1,1,1,4,1,1,1,4,1,1,1,4,1,1,1,4,1,3,1,2,1,1,3,4,1,1,3,2,2,1,1,4,1,1,3,2,1,1,3,4,1,1,3,2,1,3,3,2,1,1,1,4,1,1,1,2,1,1,1,3,1,1,1,2,1,1,1,4,1,1,1,2,1,3,3,4,1,1,1,4,1,1,1,4,1,1,1,4,1,1,1,4,1,1,1,4,1,1,1,4,4,3,1,2,1,2,1,4,1,1,1,2,1,1,1,4,1,1,1,2,1,2,1,4,1,1,1,2,1,3,1,2,1,1,1,3,1,1,1,2,1,1,1,4,1,1,1,2,1,1,1,3,1,1,1,2,1,3,3,2,1,1,1,4,1,1,1,2,2,1,1,4,1,1,1,2,1,1,1,4,1,1,1,2,1,3,3,2,1,1,1,3,1,1,1,2,1,1,1,4,1,1,1,2,1,1,1,3,1,1,1,2,2,1,3,4,1,2,3,4,1,1,1,4,1,1,1,3,1,1,1,4,1,2,3,4,1,1,1,4,1,3,3,2,1,1,3,4,1,1,3,2,1,1,1,3,1,1,3,2,1,1,3,4,1,1,3,2,1,3,3,2,1,1,3,4,3,1,4,2,1,1,1,4,3,1,4,2,1,1,3,4,3,1,4,2]
letting ub =  244
